150 135 10
0 1 0
1 2 0
2 3 0
3 4 0
4 5 0
5 6 0
6 7 0
7 8 0
8 9 0
10 11 1
11 12 1
12 13 1
13 14 1
14 15 1
15 16 1
16 17 1
17 18 1
18 19 1
20 21 2
21 22 2
22 23 2
23 24 2
24 25 2
25 26 2
26 27 2
27 28 2
28 29 2
30 31 3
31 32 3
32 33 3
33 34 3
34 35 3
35 36 3
36 37 3
37 38 3
38 39 3
40 41 4
41 42 4
42 43 4
43 44 4
44 45 4
45 46 4
46 47 4
47 48 4
48 49 4
50 51 5
51 52 5
52 53 5
53 54 5
54 55 5
55 56 5
56 57 5
57 58 5
58 59 5
60 61 6
61 62 6
62 63 6
63 64 6
64 65 6
65 66 6
66 67 6
67 68 6
68 69 6
70 71 7
71 72 7
72 73 7
73 74 7
74 75 7
75 76 7
76 77 7
77 78 7
78 79 7
80 81 8
81 82 8
82 83 8
83 84 8
84 85 8
85 86 8
86 87 8
87 88 8
88 89 8
90 91 9
91 92 9
92 93 9
93 94 9
94 95 9
95 96 9
96 97 9
97 98 9
98 99 9
100 101 10
101 102 10
102 103 10
103 104 10
104 105 10
105 106 10
106 107 10
107 108 10
108 109 10
110 111 11
111 112 11
112 113 11
113 114 11
114 115 11
115 116 11
116 117 11
117 118 11
118 119 11
120 121 12
121 122 12
122 123 12
123 124 12
124 125 12
125 126 12
126 127 12
127 128 12
128 129 12
130 131 13
131 132 13
132 133 13
133 134 13
134 135 13
135 136 13
136 137 13
137 138 13
138 139 13
140 141 14
141 142 14
142 143 14
143 144 14
144 145 14
145 146 14
146 147 14
147 148 14
148 149 14
1 7 84
1 5 58
1 8 77
1 2 44
1 4 97
1 6 89
1 3 5
1 1 58
1 9 96
1 0 9
1 6 21
1 1 87
1 4 15
1 5 39
1 2 81
1 3 85
1 7 31
1 8 57
1 9 73
1 0 77
1 0 40
1 5 71
1 8 34
1 9 82
1 3 70
1 6 22
1 4 10
1 7 80
1 2 48
1 1 49
1 5 75
1 2 17
1 3 7
1 6 72
1 4 11
1 7 62
1 8 47
1 9 35
1 1 91
1 0 55
1 9 20
1 4 12
1 6 71
1 7 67
1 0 64
1 2 94
1 8 15
1 5 50
1 3 75
1 1 90
1 6 93
1 5 93
1 1 57
1 7 70
1 8 77
1 4 58
1 0 52
1 2 29
1 9 7
1 3 68
1 7 56
1 0 95
1 8 48
1 4 26
1 2 82
1 1 63
1 9 36
1 3 27
1 6 87
1 5 6
1 3 76
1 5 15
1 9 78
1 1 8
1 8 41
1 2 36
1 4 30
1 6 84
1 0 36
1 7 76
1 0 75
1 7 13
1 2 81
1 8 29
1 4 54
1 6 82
1 5 88
1 1 78
1 9 40
1 3 13
1 2 6
1 1 26
1 7 32
1 6 64
1 4 54
1 0 52
1 5 82
1 3 6
1 9 88
1 8 54
1 8 62
1 2 67
1 5 32
1 0 62
1 7 69
1 3 61
1 1 35
1 4 72
1 9 5
1 6 93
1 2 78
1 9 90
1 0 85
1 1 72
1 8 64
1 6 63
1 3 11
1 7 82
1 5 88
1 4 7
1 4 28
1 9 11
1 7 50
1 6 88
1 0 44
1 5 31
1 2 27
1 1 66
1 8 49
1 3 35
1 2 14
1 5 39
1 6 56
1 4 62
1 3 97
1 9 66
1 7 69
1 1 7
1 8 47
1 0 76
1 1 18
1 8 93
1 7 58
1 6 47
1 3 69
1 9 57
1 2 41
1 5 53
1 4 79
1 0 64